c This Formular is generated by mcnf
c
c    horn? no 
c    forced? no 
c    mixed sat? no 
c    clause length = 3 
c
p cnf 20 8 
18 -10 0
-8 0
10 0
-10 -11 8 0
2 0
-18 -2 20 0
3 -2 0
-2 -3 0
-20 -18 11 0